(set-info :source |printed by MathSAT|)
(declare-fun call_moesi.flby5 () Int)
(declare-fun call_moesi.flby3 () Int)
(declare-fun param_etat_mo2 () Bool)
(declare-fun env () Bool)
(declare-fun param_etat_mo3 () Bool)
(declare-fun call_Sofar.Sofar () Bool)
(declare-fun call_moesi.invalid_mo () Int)
(declare-fun call_moesi.ite12 () Int)
(declare-fun erreur_mo () Bool)
(declare-fun call_excludes4.excludes () Bool)
(declare-fun call_moesi.ite23 () Int)
(declare-fun call_moesi.ite25 () Int)
(declare-fun call_moesi.ite18 () Int)
(declare-fun call_moesi.exclusive_mo () Int)
(declare-fun call_moesi.ite11 () Int)
(declare-fun call_moesi.garde_mo1 () Bool)
(declare-fun call_moesi.ite19 () Int)
(declare-fun call_moesi.ite24 () Int)
(declare-fun call_moesi.ite7 () Int)
(declare-fun call_moesi.ite17 () Int)
(declare-fun call_Sofar.flby () Bool)
(declare-fun call_moesi.ite34 () Int)
(declare-fun call_moesi.ite31 () Int)
(declare-fun call_moesi.ite13 () Int)
(declare-fun param_init_invalid_mo () Int)
(declare-fun call_moesi.ite20 () Int)
(declare-fun owned_mo () Int)
(declare-fun call_moesi.ite33 () Int)
(declare-fun call_moesi.flby4 () Int)
(declare-fun call_moesi.ite4 () Int)
(declare-fun shared_mo () Int)
(declare-fun call_moesi.ite5 () Int)
(declare-fun call_moesi.ite9 () Int)
(declare-fun call_moesi.ite6 () Int)
(declare-fun call_moesi.ite () Int)
(declare-fun call_moesi.garde_mo4 () Bool)
(declare-fun param_etat_mo1 () Bool)
(declare-fun modified_mo () Int)
(declare-fun call_moesi.ite3 () Int)
(declare-fun _OK_ () Bool)
(declare-fun call_moesi.garde_mo3 () Bool)
(declare-fun call_moesi.modified_mo () Int)
(declare-fun call_moesi.ite10 () Int)
(declare-fun call_moesi.shared_mo () Int)
(declare-fun call_moesi.ite32 () Int)
(declare-fun call_moesi.ite28 () Int)
(declare-fun flby () Bool)
(declare-fun call_moesi.owned_mo () Int)
(declare-fun call_moesi.flby6 () Int)
(declare-fun exclusive_mo () Int)
(declare-fun call_moesi.ite26 () Int)
(declare-fun call_moesi.ite29 () Int)
(declare-fun call_moesi.ite22 () Int)
(declare-fun call_moesi.ite27 () Int)
(declare-fun call_moesi.ite14 () Int)
(declare-fun call_moesi.flby2 () Int)
(declare-fun call_moesi.flby () Bool)
(declare-fun call_moesi.ite8 () Int)
(declare-fun call_moesi.ite30 () Int)
(declare-fun call_moesi.ite16 () Int)
(declare-fun call_moesi.ite2 () Int)
(declare-fun call_moesi.ite21 () Int)
(declare-fun param_etat_mo4 () Bool)
(declare-fun call_moesi.ite15 () Int)
(declare-fun call_moesi.erreur_mo () Bool)
(declare-fun invalid_mo () Int)
(define-fun .def_929 () Bool (= call_Sofar.flby call_Sofar.Sofar))
(define-fun .def_924 () Bool (and param_etat_mo4 param_etat_mo3))
(define-fun .def_922 () Bool (and param_etat_mo4 param_etat_mo2))
(define-fun .def_920 () Bool (and param_etat_mo2 param_etat_mo3))
(define-fun .def_918 () Bool (and param_etat_mo4 param_etat_mo1))
(define-fun .def_916 () Bool (and param_etat_mo1 param_etat_mo3))
(define-fun .def_915 () Bool (and param_etat_mo2 param_etat_mo1))
(define-fun .def_917 () Bool (or .def_915 .def_916))
(define-fun .def_919 () Bool (or .def_917 .def_918))
(define-fun .def_921 () Bool (or .def_919 .def_920))
(define-fun .def_923 () Bool (or .def_921 .def_922))
(define-fun .def_925 () Bool (or .def_923 .def_924))
(define-fun .def_926 () Bool (not .def_925))
(define-fun .def_927 () Bool (= call_excludes4.excludes .def_926))
(define-fun .def_913 () Bool (= call_moesi.flby call_moesi.erreur_mo))
(define-fun .def_911 () Bool (= call_moesi.flby6 call_moesi.owned_mo))
(define-fun .def_909 () Bool (= call_moesi.flby5 call_moesi.invalid_mo))
(define-fun .def_907 () Bool (= call_moesi.flby4 call_moesi.shared_mo))
(define-fun .def_905 () Bool (= call_moesi.flby3 call_moesi.exclusive_mo))
(define-fun .def_903 () Bool (= call_moesi.flby2 call_moesi.modified_mo))
(define-fun .def_901 () Bool (= env call_Sofar.Sofar))
(define-fun .def_898 () Bool (= erreur_mo call_moesi.erreur_mo))
(define-fun .def_894 () Bool (= owned_mo call_moesi.owned_mo))
(define-fun .def_890 () Bool (= invalid_mo call_moesi.invalid_mo))
(define-fun .def_886 () Bool (= shared_mo call_moesi.shared_mo))
(define-fun .def_882 () Bool (= exclusive_mo call_moesi.exclusive_mo))
(define-fun .def_878 () Bool (= modified_mo call_moesi.modified_mo))
(define-fun .def_872 () Bool (not env))
(define-fun .def_873 () Bool (or flby .def_872))
(define-fun .def_874 () Bool (= _OK_ .def_873))
(define-fun .def_866 () Bool (= call_moesi.ite32 call_moesi.ite33))
(define-fun .def_867 () Bool (or param_etat_mo3 .def_866))
(define-fun .def_863 () Bool (= call_moesi.ite30 call_moesi.ite33))
(define-fun .def_841 () Bool (not param_etat_mo3))
(define-fun .def_864 () Bool (or .def_841 .def_863))
(define-fun .def_860 () Bool (= call_moesi.ite26 call_moesi.ite27))
(define-fun .def_861 () Bool (or param_etat_mo3 .def_860))
(define-fun .def_857 () Bool (= call_moesi.ite27 call_moesi.ite24))
(define-fun .def_858 () Bool (or .def_841 .def_857))
(define-fun .def_853 () Bool (= call_moesi.ite20 call_moesi.ite21))
(define-fun .def_854 () Bool (or param_etat_mo3 .def_853))
(define-fun .def_850 () Bool (= call_moesi.ite18 call_moesi.ite21))
(define-fun .def_851 () Bool (or .def_841 .def_850))
(define-fun .def_847 () Bool (= call_moesi.ite13 call_moesi.ite14))
(define-fun .def_848 () Bool (or param_etat_mo3 .def_847))
(define-fun .def_844 () Bool (= call_moesi.ite11 call_moesi.ite14))
(define-fun .def_845 () Bool (or .def_841 .def_844))
(define-fun .def_840 () Bool (= call_moesi.ite3 call_moesi.ite6))
(define-fun .def_842 () Bool (or .def_840 .def_841))
(define-fun .def_837 () Bool (= call_moesi.ite5 call_moesi.ite6))
(define-fun .def_839 () Bool (or .def_837 param_etat_mo3))
(define-fun .def_843 () Bool (and .def_839 .def_842))
(define-fun .def_846 () Bool (and .def_843 .def_845))
(define-fun .def_849 () Bool (and .def_846 .def_848))
(define-fun .def_852 () Bool (and .def_849 .def_851))
(define-fun .def_855 () Bool (and .def_852 .def_854))
(define-fun .def_859 () Bool (and .def_855 .def_858))
(define-fun .def_862 () Bool (and .def_859 .def_861))
(define-fun .def_865 () Bool (and .def_862 .def_864))
(define-fun .def_868 () Bool (and .def_865 .def_867))
(define-fun .def_833 () Bool (= call_moesi.ite34 call_moesi.ite33))
(define-fun .def_834 () Bool (or param_etat_mo1 .def_833))
(define-fun .def_829 () Bool (= call_moesi.ite29 call_moesi.ite34))
(define-fun .def_799 () Bool (not param_etat_mo1))
(define-fun .def_830 () Bool (or .def_799 .def_829))
(define-fun .def_824 () Bool (= call_moesi.ite28 call_moesi.ite27))
(define-fun .def_825 () Bool (or param_etat_mo1 .def_824))
(define-fun .def_820 () Bool (= call_moesi.ite23 call_moesi.ite28))
(define-fun .def_821 () Bool (or .def_799 .def_820))
(define-fun .def_815 () Bool (= call_moesi.ite22 call_moesi.ite21))
(define-fun .def_816 () Bool (or param_etat_mo1 .def_815))
(define-fun .def_811 () Bool (= call_moesi.ite17 call_moesi.ite22))
(define-fun .def_812 () Bool (or .def_799 .def_811))
(define-fun .def_806 () Bool (= call_moesi.ite15 call_moesi.ite16))
(define-fun .def_807 () Bool (or param_etat_mo1 .def_806))
(define-fun .def_803 () Bool (= call_moesi.ite9 call_moesi.ite16))
(define-fun .def_804 () Bool (or .def_799 .def_803))
(define-fun .def_798 () Bool (= call_moesi.ite call_moesi.ite8))
(define-fun .def_800 () Bool (or .def_798 .def_799))
(define-fun .def_795 () Bool (= call_moesi.ite7 call_moesi.ite8))
(define-fun .def_797 () Bool (or .def_795 param_etat_mo1))
(define-fun .def_801 () Bool (and .def_797 .def_800))
(define-fun .def_805 () Bool (and .def_801 .def_804))
(define-fun .def_808 () Bool (and .def_805 .def_807))
(define-fun .def_813 () Bool (and .def_808 .def_812))
(define-fun .def_817 () Bool (and .def_813 .def_816))
(define-fun .def_822 () Bool (and .def_817 .def_821))
(define-fun .def_826 () Bool (and .def_822 .def_825))
(define-fun .def_831 () Bool (and .def_826 .def_830))
(define-fun .def_835 () Bool (and .def_831 .def_834))
(define-fun .def_791 () Bool (= call_moesi.ite15 call_moesi.ite14))
(define-fun .def_792 () Bool (or param_etat_mo2 .def_791))
(define-fun .def_787 () Bool (= call_moesi.ite10 call_moesi.ite15))
(define-fun .def_782 () Bool (not param_etat_mo2))
(define-fun .def_788 () Bool (or .def_782 .def_787))
(define-fun .def_781 () Bool (= call_moesi.ite7 call_moesi.ite2))
(define-fun .def_783 () Bool (or .def_781 .def_782))
(define-fun .def_777 () Bool (= call_moesi.ite7 call_moesi.ite6))
(define-fun .def_779 () Bool (or .def_777 param_etat_mo2))
(define-fun .def_784 () Bool (and .def_779 .def_783))
(define-fun .def_789 () Bool (and .def_784 .def_788))
(define-fun .def_793 () Bool (and .def_789 .def_792))
(define-fun .def_836 () Bool (and .def_793 .def_835))
(define-fun .def_869 () Bool (and .def_836 .def_868))
(define-fun .def_875 () Bool (and .def_869 .def_874))
(define-fun .def_879 () Bool (and .def_875 .def_878))
(define-fun .def_883 () Bool (and .def_879 .def_882))
(define-fun .def_887 () Bool (and .def_883 .def_886))
(define-fun .def_891 () Bool (and .def_887 .def_890))
(define-fun .def_895 () Bool (and .def_891 .def_894))
(define-fun .def_899 () Bool (and .def_895 .def_898))
(define-fun .def_902 () Bool (and .def_899 .def_901))
(define-fun .def_904 () Bool (and .def_902 .def_903))
(define-fun .def_906 () Bool (and .def_904 .def_905))
(define-fun .def_908 () Bool (and .def_906 .def_907))
(define-fun .def_910 () Bool (and .def_908 .def_909))
(define-fun .def_912 () Bool (and .def_910 .def_911))
(define-fun .def_914 () Bool (and .def_912 .def_913))
(define-fun .def_928 () Bool (and .def_914 .def_927))
(define-fun .def_930 () Bool (and .def_928 .def_929))
(define-fun .def_773 () Bool (= call_excludes4.excludes call_Sofar.flby))
(define-fun .def_769 () Bool (= call_moesi.flby6 0))
(define-fun .def_766 () Bool (= param_init_invalid_mo call_moesi.flby5))
(define-fun .def_762 () Bool (= call_moesi.flby4 0))
(define-fun .def_759 () Bool (= call_moesi.flby3 0))
(define-fun .def_756 () Bool (= call_moesi.flby2 0))
(define-fun .def_753 () Bool (not call_moesi.flby))
(define-fun .def_748 () Bool (= call_moesi.ite31 0))
(define-fun .def_740 () Bool (not call_moesi.garde_mo4))
(define-fun .def_749 () Bool (or .def_740 .def_748))
(define-fun .def_745 () Bool (= call_moesi.ite19 0))
(define-fun .def_746 () Bool (or .def_740 .def_745))
(define-fun .def_742 () Bool (= call_moesi.ite4 0))
(define-fun .def_743 () Bool (or .def_740 .def_742))
(define-fun .def_738 () Bool (= call_moesi.ite12 1))
(define-fun .def_741 () Bool (or .def_738 .def_740))
(define-fun .def_744 () Bool (and .def_741 .def_743))
(define-fun .def_747 () Bool (and .def_744 .def_746))
(define-fun .def_750 () Bool (and .def_747 .def_749))
(define-fun .def_734 () Bool (= call_moesi.ite30 0))
(define-fun .def_723 () Bool (not call_moesi.garde_mo3))
(define-fun .def_735 () Bool (or .def_723 .def_734))
(define-fun .def_730 () Bool (= call_moesi.ite18 0))
(define-fun .def_731 () Bool (or .def_723 .def_730))
(define-fun .def_726 () Bool (= call_moesi.ite3 0))
(define-fun .def_727 () Bool (or .def_723 .def_726))
(define-fun .def_721 () Bool (= call_moesi.ite11 1))
(define-fun .def_724 () Bool (or .def_721 .def_723))
(define-fun .def_728 () Bool (and .def_724 .def_727))
(define-fun .def_732 () Bool (and .def_728 .def_731))
(define-fun .def_736 () Bool (and .def_732 .def_735))
(define-fun .def_716 () Bool (= call_moesi.ite 0))
(define-fun .def_713 () Bool (not call_moesi.garde_mo1))
(define-fun .def_717 () Bool (or .def_713 .def_716))
(define-fun .def_711 () Bool (= call_moesi.ite9 0))
(define-fun .def_714 () Bool (or .def_711 .def_713))
(define-fun .def_718 () Bool (and .def_714 .def_717))
(define-fun .def_705 () Bool (= call_moesi.ite31 call_moesi.ite32))
(define-fun .def_686 () Bool (not param_etat_mo4))
(define-fun .def_706 () Bool (or .def_686 .def_705))
(define-fun .def_700 () Bool (= call_moesi.ite25 call_moesi.ite26))
(define-fun .def_701 () Bool (or .def_686 .def_700))
(define-fun .def_695 () Bool (= call_moesi.ite19 call_moesi.ite20))
(define-fun .def_696 () Bool (or .def_686 .def_695))
(define-fun .def_690 () Bool (= call_moesi.ite4 call_moesi.ite5))
(define-fun .def_691 () Bool (or .def_686 .def_690))
(define-fun .def_684 () Bool (= call_moesi.ite12 call_moesi.ite13))
(define-fun .def_687 () Bool (or .def_684 .def_686))
(define-fun .def_692 () Bool (and .def_687 .def_691))
(define-fun .def_697 () Bool (and .def_692 .def_696))
(define-fun .def_702 () Bool (and .def_697 .def_701))
(define-fun .def_707 () Bool (and .def_702 .def_706))
(define-fun .def_709 () Bool (and .def_707 flby))
(define-fun .def_719 () Bool (and .def_709 .def_718))
(define-fun .def_737 () Bool (and .def_719 .def_736))
(define-fun .def_751 () Bool (and .def_737 .def_750))
(define-fun .def_754 () Bool (and .def_751 .def_753))
(define-fun .def_757 () Bool (and .def_754 .def_756))
(define-fun .def_760 () Bool (and .def_757 .def_759))
(define-fun .def_763 () Bool (and .def_760 .def_762))
(define-fun .def_767 () Bool (and .def_763 .def_766))
(define-fun .def_770 () Bool (and .def_767 .def_769))
(define-fun .def_774 () Bool (and .def_770 .def_773))
(define-fun .def_931 () Bool (and .def_774 .def_930))
(assert .def_931)
